HUN,8,6,310
3,29,1,27,0,29,4,28,2,25,5,25
3,23,2,29,0,23,5,30,4,27,1,29
4,21,0,26,2,24,1,28,5,24,3,21
3,21,1,23,0,24,5,22,2,26,4,28
4,28,1,22,3,28,0,21,5,22,2,25
1,22,0,27,3,24,5,24,4,30,2,28
3,29,0,27,4,28,5,30,2,30,1,28
5,21,4,22,0,29,3,26,1,28,2,26
